
Gurobi 5.6.3 (linux64) logging started Wed Jul 22 11:45:01 2015


Gurobi 5.6.3 (linux64) logging started Wed Jul 22 12:55:11 2015


Gurobi 5.6.3 (linux64) logging started Wed Jul 22 12:55:51 2015


Gurobi 5.6.3 (linux64) logging started Wed Jul 22 12:56:15 2015


Gurobi 5.6.3 (linux64) logging started Wed Jul 22 12:56:35 2015


Gurobi 5.6.3 (linux64) logging started Wed Jul 22 12:56:53 2015


Gurobi 5.6.3 (linux64) logging started Wed Jul 22 13:22:06 2015

